7 
5 
4 
4 
1 
4 
6 
9 
5 
5 
6 
2 
7 
2 
6 
3 
3 
8 
5 
7 
4 
3 
4 
9 
5 
7 
7 
4 
6 
4 
1 
4 
2 
3 
5 
14 
6 
3 
9 
6 
5 
7 
7 
7 
5 
8 
4 
3 
5 
3 
2 
3 
3 
9 
7 
3 
4 
7 
4 
5 
1 
6 
7 
8 
7 
3 
1 
2 
5 
6 
7 
6 
6 
4 
8 
5 
1 
2 
6 
4 
6 
9 
4 
6 
5 
5 
5 
3 
8 
7 
8 
2 
2 
5 
2 
2 
5 
5 
7 
5 
